outputs/LP-i7-4/bwp_4_3_1.LP.out
15
0 5		3 9
0 10		3 14
0 0		3 4
