outputs/SAT-i7/bwp_4_3_1.SAT.out
15
0 0		3 4
0 10		3 14
0 5		3 9
