scripts/logs/SAT-p4-enforced/bwp_4_3_1.SAT.log.out
dc jun 6 20:30:04 CEST 2018
    [1;34mTry max length:[0m 999999
    [1;34m    At iteration:[0m 0
        lingeling found a solution in .056 ms

       | W
     L | 0 1 2 3 
    ------------
     0 | 1 1 1 1 
     1 | 1 1 1 1 
     2 | 1 1 1 1 
     3 | 1 1 1 1 
     4 | 1 1 1 1 
     5 | 3 3 3 3 
     6 | 3 3 3 3 
     7 | 3 3 3 3 
     8 | 3 3 3 3 
     9 | 3 3 3 3 
    10 | 2 2 2 2 
    11 | 2 2 2 2 
    12 | 2 2 2 2 
    13 | 2 2 2 2 
    14 | 2 2 2 2 
    
    Boxes' corners:      (w,l)
        Box 1 is at 
            top left     (0,0)
            bottom right (3,4)
    
        Box 2 is at 
            top left     (0,10)
            bottom right (3,14)
    
        Box 3 is at 
            top left     (0,5)
            bottom right (3,9)
    
        Roll length used: 15

    [1;34mTry max length:[0m 14
    [1;34m    At iteration:[0m 1
        [3;31mlingeling determined unsatisfiability of the Boolean formula[0m
        [1;32mOptimality reached![0m
