scripts/logs/LP-i7-4/bwp_4_3_1.LP.log.out
Sun 20 May 09:00:32 CEST 2018
CPXPARAM_TimeLimit                               45
CPXPARAM_Threads                                 4
CPXPARAM_MIP_Strategy_CallbackReducedLP          0
Tried aggregator 3 times.
MIP Presolve eliminated 981 rows and 1047 columns.
MIP Presolve modified 810 coefficients.
Aggregator did 2006 substitutions.
Reduced MIP has 1456 rows, 944 columns, and 3007 nonzeros.
Reduced MIP has 907 binaries, 4 generals, 0 SOSs, and 33 indicators.
Presolve time = 0.02 sec. (20.64 ticks)
Found incumbent of value 15.000000 after 0.02 sec. (24.88 ticks)
Probing changed sense of 33 constraints.
Probing time = 0.01 sec. (12.95 ticks)
Cover probing fixed 0 vars, tightened 4 bounds.
Tried aggregator 2 times.
MIP Presolve eliminated 585 rows and 99 columns.
MIP Presolve modified 162 coefficients.
Aggregator did 660 substitutions.
Reduced MIP has 211 rows, 185 columns, and 983 nonzeros.
Reduced MIP has 181 binaries, 4 generals, 0 SOSs, and 33 indicators.
Presolve time = 0.00 sec. (3.43 ticks)
Probing time = 0.00 sec. (0.39 ticks)
Tried aggregator 3 times.
MIP Presolve eliminated 47 rows and 0 columns.
Aggregator did 148 substitutions.
Reduced MIP has 16 rows, 37 columns, and 150 nonzeros.
Reduced MIP has 33 binaries, 4 generals, 0 SOSs, and 33 indicators.
Presolve time = 0.00 sec. (0.96 ticks)
Probing time = 0.00 sec. (0.06 ticks)
Tried aggregator 1 time.
Reduced MIP has 16 rows, 37 columns, and 150 nonzeros.
Reduced MIP has 33 binaries, 4 generals, 0 SOSs, and 33 indicators.
Presolve time = 0.00 sec. (0.14 ticks)
Probing time = 0.00 sec. (0.06 ticks)
Clique table members: 10.
MIP emphasis: balance optimality and feasibility.
MIP search method: dynamic search.
Parallel mode: deterministic, using up to 4 threads.
Root relaxation solution time = 0.00 sec. (0.06 ticks)

        Nodes                                         Cuts/
   Node  Left     Objective  IInf  Best Integer    Best Bound    ItCnt     Gap

*     0+    0                           15.0000        5.0000            66.67%
      0     0        8.3333    11       15.0000        8.3333        8   44.44%
      0     0        cutoff             15.0000                     10    0.00%
Elapsed time = 0.04 sec. (44.22 ticks, tree = 0.01 MB, solutions = 1)

Root node processing (before b&c):
  Real time             =    0.04 sec. (44.33 ticks)
Parallel b&c, 4 threads:
  Real time             =    0.00 sec. (0.00 ticks)
  Sync time (average)   =    0.00 sec.
  Wait time (average)   =    0.00 sec.
                          ------------
Total (root+branch&cut) =    0.04 sec. (44.33 ticks)
   | W
 L | 0 1 2 3 
------------
 0 | 3 3 3 3 
 1 | 3 3 3 3 
 2 | 3 3 3 3 
 3 | 3 3 3 3 
 4 | 3 3 3 3 
 5 | 1 1 1 1 
 6 | 1 1 1 1 
 7 | 1 1 1 1 
 8 | 1 1 1 1 
 9 | 1 1 1 1 
10 | 2 2 2 2 
11 | 2 2 2 2 
12 | 2 2 2 2 
13 | 2 2 2 2 
14 | 2 2 2 2 

Boxes' corners:      (w,l)
    Box 1 is at 
        top left     (0,5)
        bottom right (3,9)

    Box 2 is at 
        top left     (0,10)
        bottom right (3,14)

    Box 3 is at 
        top left     (0,0)
        bottom right (3,4)

    Roll length used: 15
In 0.06 seconds
